c Output_time 26.03.2020 18:13:09_+0100 1585242789329401254
c ** Program information **
c program_name                          "QBRG_debug"
c version                               "0.3.20"
c date                                  "25.3.2020"
c gid_id                                "673970833836058123f633335630c185360d632e"
c author                                "Oliver Kullmann"
c url                                   "https://github.com/OKullmann/oklibrary/blob/master/Satisfiability/Transformers/Generators/Random/QBRG.cpp"
c ** Machine information **
c machine_name                          "chyna-Lenovo-G50-70"
c bogomips                              3791.08
c ** Compilation information **
c compiler_version                      "g++ 7.5.0"
c compilation_date                      "Mar_26_2020 11:16:30"
c compilation_options                   "--std=c++17 -pedantic -fmax-errors=5 -Wall -Wextra -g -D_GLIBCXX_DEBUG"
c NDEBUG                                0
c OPTIMIZE                              0
c ** Parameters **
c command-line                          "./QBRG_debug" "e40 a40 40" "115*1,1|2-2,1|3-3,1" "" "1,t" ""
c output                                "QuBlRaGe_120_115_1585242789325479749.qdimacs"
c options                               "filtered,renamed"
c num_quantifier_blocks                 3
c  quantifier_blocks                    1:e1-40 2:a41-80 3:e81-120
c num_clause-blocks                     1
c  clause-blocks                        115 * {1-40,1,1/2} | {41-80,1,1/2} | {81-120,1,1/2}
c num_e-seeds                           30+2=32
c  e-seeds                              1 0 1 0 4 120 2 40 1 40 0 40 1 115 3 1 1 1 1 2 2 2 1 1 2 3 3 1 1 2 1 1585242789325479356
p cnf 112 115
e 1 2 3 4 5 6 7 8 9 10 11 12 13 14 15 16 17 18 19 20 21 22 23 24 25 26 27 28 29 30 31 32 33 34 35 36 37 0
a 38 39 40 41 42 43 44 45 46 47 48 49 50 51 52 53 54 55 56 57 58 59 60 61 62 63 64 65 66 67 68 69 70 71 72 73 74 0
e 75 76 77 78 79 80 81 82 83 84 85 86 87 88 89 90 91 92 93 94 95 96 97 98 99 100 101 102 103 104 105 106 107 108 109 110 111 112 0
34 -71 -75 0
-11 60 75 0
-37 65 76 0
-22 41 -77 0
-12 -60 77 0
5 -53 -78 0
17 72 -78 0
-16 39 78 0
-10 64 78 0
-20 -47 -79 0
-31 -44 79 0
15 47 80 0
-3 54 80 0
-15 -71 80 0
32 55 -81 0
20 60 -81 0
-26 -67 -81 0
-3 57 81 0
33 -69 82 0
-23 48 -83 0
-22 61 -83 0
20 -64 -83 0
27 65 83 0
34 55 -84 0
-6 -70 -84 0
-17 71 -84 0
27 -59 84 0
-36 44 -85 0
-29 -73 -85 0
-4 -38 85 0
-10 74 85 0
27 -67 86 0
7 73 86 0
23 -44 -87 0
8 48 -87 0
16 -42 87 0
9 62 87 0
2 64 -88 0
-37 67 -88 0
-4 -39 -89 0
1 -47 -89 0
18 -73 -89 0
-37 48 89 0
-25 -49 -90 0
30 50 -90 0
-4 -69 -90 0
-29 -43 90 0
20 51 90 0
30 53 -91 0
34 -59 91 0
12 -67 91 0
16 73 91 0
-15 -62 -92 0
-13 -74 -92 0
15 46 92 0
22 64 92 0
8 59 -93 0
-35 -71 -93 0
8 39 93 0
-4 -43 93 0
-14 46 93 0
-7 73 93 0
-31 -49 -94 0
37 74 -94 0
-7 -56 94 0
27 68 94 0
12 -39 -95 0
-25 -58 -95 0
-13 38 95 0
13 66 -96 0
17 -44 96 0
35 45 96 0
30 64 96 0
19 41 -97 0
-28 -45 -97 0
18 52 97 0
29 -41 -98 0
-21 -70 98 0
20 -55 -99 0
-23 -42 99 0
16 -45 99 0
-34 54 -100 0
-36 -64 -100 0
-16 64 -100 0
6 -73 -100 0
-8 40 100 0
-15 66 -101 0
-11 59 101 0
-19 -38 -102 0
-32 -63 -102 0
-4 -70 -102 0
-9 -73 -102 0
16 -51 102 0
-6 -58 -103 0
19 41 -104 0
-26 -45 -104 0
30 62 104 0
24 -52 -105 0
34 55 -105 0
-20 59 -105 0
-23 -61 -106 0
-22 41 106 0
32 -67 106 0
27 45 -107 0
7 -47 -107 0
-10 -68 -107 0
30 55 -108 0
-17 67 -108 0
-8 50 108 0
-22 -53 109 0
19 66 -110 0
24 51 -111 0
-19 -53 -111 0
-6 64 111 0
-37 -64 112 0
